c Result of efficient AIG-to-CNF conversion using package CNF
p cnf 36 61
2 31 -35 -9 0
2 -31 -35 -3 0
-2 35 0
-2 31 9 0
-2 -31 3 0
-3 -32 4 0
-3 32 7 8 0
3 32 -8 0
3 -32 -4 0
3 32 -7 0
-4 -33 5 0
-4 33 6 0
4 33 -6 0
4 -33 -5 0
-5 16 34 0
-5 15 -34 0
5 -16 34 0
5 -15 -34 0
-6 18 34 0
-6 17 -34 0
6 -18 34 0
6 -17 -34 0
7 -19 -33 -34 0
7 -20 -33 34 0
-7 33 0
-7 19 -34 0
-7 20 34 0
8 -21 33 -34 0
8 -22 33 34 0
-8 -33 0
-8 21 -34 0
-8 22 34 0
-9 -32 10 0
-9 32 13 14 0
9 32 -14 0
9 -32 -10 0
9 32 -13 0
-10 -33 11 0
-10 33 12 0
10 33 -12 0
10 -33 -11 0
-11 24 34 0
-11 23 -34 0
11 -24 34 0
11 -23 -34 0
-12 26 34 0
-12 25 -34 0
12 -26 34 0
12 -25 -34 0
13 -27 -33 -34 0
13 -28 -33 34 0
-13 33 0
-13 27 -34 0
-13 28 34 0
14 -29 33 -34 0
14 -30 33 34 0
-14 -33 0
-14 29 -34 0
-14 30 34 0
-36 0
2 0

